WARNING: for repeatability, setting FPU to use double precision
============================[ Problem Statistics ]=============================
|                                                                             |
|  Number of variables:            50                                         |
|  Number of clauses:             218                                         |
|  Parse time:                   0.00 s                                       |
|                                                                             |
============================[ Search Statistics ]==============================
| Conflicts |          ORIGINAL         |          LEARNT          | Progress |
|           |    Vars  Clauses Literals |    Limit  Clauses Lit/Cl |          |
===============================================================================
===============================================================================
restarts              : 1
conflicts             : 25             (17794 /sec)
decisions             : 45             (0.00 % random) (32028 /sec)
propagations          : 456            (324555 /sec)
conflict literals     : 106            (19.08 % deleted)
Memory used           : 20.00 MB
CPU time              : 0.001405 s

SATISFIABLE
